27
trp_gs_opt.out	Energy: -430502.7436787
O          1.53632       -0.84349        1.81618
O          2.22943       -1.91896       -0.02442
N         -1.80123        2.03449        0.47764
N          3.79388        0.46948       -0.57025
C          0.04265        1.12841       -0.44319
C          1.43938        0.97338       -0.96603
C         -0.99872        0.12967       -0.40277
C          2.48278        0.48470        0.06117
C         -2.13666        0.73364        0.17839
C         -0.49662        2.26226        0.09623
C         -1.07893       -1.21085       -0.81320
C         -3.33780        0.04448        0.36289
C          2.08217       -0.88524        0.58928
C         -2.26661       -1.89820       -0.63405
C         -3.38662       -1.27581       -0.04944
H          1.44842        0.27730       -1.81406
H          1.81626        1.92879       -1.34288
H          2.50590        1.18435        0.90054
H         -0.04695        3.23642        0.23608
H         -2.41705        2.71974        0.88542
H         -0.22030       -1.70594       -1.25730
H         -4.20266        0.52557        0.81131
H         -2.33925       -2.93502       -0.94848
H          3.83717       -0.27490       -1.26338
H          4.52656        0.28603        0.11010
H         -4.30508       -1.84110        0.07790
H          1.25232       -1.74814        2.04327
