100

N -0.395   2.049   3.158
C -0.501   1.427   1.962
C -0.991   0.149   2.274
C -1.129   0.059   3.676
C -0.374   1.884   0.656
C -1.189  -0.748   1.255
C -0.706   1.233   4.201
C -0.599   1.009  -0.393
C -1.020  -0.303  -0.062
H -0.012   3.000   3.198
H -1.587  -0.781   4.137
H -0.286   2.901   0.339
H -1.688  -1.778   1.430
H -0.593   1.561   5.223
H -0.384   1.334  -1.426
H -1.112  -0.946  -0.913
O -1.926 -0.659 7.592
H -2.916 -0.563 7.872
H -2.031 -1.498 7.108
O 1.719 -2.334 3.419
H 1.483 -3.079 2.894
H 1.758 -1.579 2.708
O 2.953 0.862 4.236
H 2.481 0.188 4.856
H 2.905 0.265 3.450
O 2.208 2.876 -0.823
H 2.309 2.843 0.140
H 3.190 2.943 -1.061
O 2.885 6.220 3.629
H 2.312 6.742 4.321
H 3.751 6.436 4.032
O -2.808 2.601 6.057
H -2.956 2.834 6.993
H -2.285 3.314 5.706
O -0.326 7.508 4.532
H -0.853 8.233 4.933
H 0.473 7.547 5.085
O 4.882 2.499 4.951
H 4.016 2.066 4.768
H 4.560 3.314 5.427
O -4.585 -1.051 4.701
H -4.271 -0.985 5.593
H -4.542 -0.125 4.445
O 4.908 -0.175 1.970
H 5.202 0.611 1.497
H 4.063 -0.388 1.570
O 3.392 4.406 5.855
H 2.655 4.416 6.517
H 3.168 5.118 5.266
O 1.763 -0.846 5.843
H 1.452 -1.388 5.093
H 2.487 -1.399 6.170
O 0.372 1.144 7.404
H -0.457 0.694 7.449
H 0.867 0.534 6.799
O 3.062 2.782 1.992
H 2.306 3.015 2.507
H 3.740 2.535 2.655
O -3.823 2.604 2.554
H -4.219 2.327 3.417
H -3.941 1.771 2.069
O 1.776 -0.580 1.139
H 1.066 0.040 0.854
H 2.404 -0.595 0.401
O 1.152 4.341 3.186
H 0.669 4.909 2.578
H 1.876 4.984 3.452
O -4.649 0.064 1.413
H -5.614 0.220 1.270
H -4.614 -0.917 1.375
O 1.135 4.106 7.316
H 0.865 4.165 8.257
H 1.050 3.139 7.172
O -5.587 4.758 2.880
H -4.720 5.225 2.961
H -5.242 3.820 2.885
O -0.120 5.784 1.335
H 0.339 5.617 0.442
H -0.938 5.239 1.213
O 0.893 5.362 -1.125
H 0.083 4.956 -1.578
H 1.430 4.532 -0.983
O -0.803 4.590 5.417
H -0.537 5.249 4.750
H 0.031 4.419 5.845
O -3.738 3.666 -1.334
H -3.831 2.693 -1.222
H -4.499 4.019 -0.913
O -3.299 6.063 2.942
H -2.732 5.594 2.306
H -3.040 7.000 2.692
O -2.448 4.305 1.123
H -2.955 3.696 1.701
H -2.863 4.204 0.252
O -3.859 0.687 -0.987
H -4.155 0.328 -0.112
H -2.936 0.474 -0.944
O -4.829 1.673 4.852
H -5.421 1.830 5.563
H -3.949 1.960 5.299
