105

O 2.462  -1.585   1.142
O 1.771  -2.175  -0.890
N -0.931   1.931   1.754
N 3.469  -0.056  -1.728
C 0.347   1.133   0.138
C 1.357   0.891  -0.921
C -0.705   0.190   0.462
C 2.642   0.079  -0.551
C -1.474   0.733   1.508
C 0.137   2.223   0.928
C -1.122  -0.946  -0.269
C -2.613   0.064   1.839
C 2.211  -1.352  -0.119
C -2.146  -1.725   0.284
C -2.904  -1.228   1.349
H 0.850   0.426  -1.871
H 1.815   1.826  -1.281
H 3.185   0.532   0.320
H 0.801   3.033   1.072
H -1.234   2.467   2.515
H -0.554  -1.086  -1.196
H -3.442   0.417   2.470
H -2.468  -2.591  -0.251
H 2.986  -0.341  -2.572
H 4.253  -0.667  -1.606
H -3.743  -1.743   1.790
H 2.006  -2.462   1.434
O -4.129 2.484 -1.120
H -4.612 2.719 -1.931
H -4.323 1.500 -1.087
O 1.261 5.791 3.639
H 0.808 6.425 4.295
H 0.518 5.184 3.525
O -2.148 6.931 3.987
H -2.838 7.162 4.632
H -1.934 7.826 3.636
O 1.083 3.350 7.016
H 0.212 2.895 7.163
H 1.464 3.320 7.887
O -0.308 5.835 6.550
H 0.063 4.957 6.278
H 0.004 5.935 7.474
O -0.385 8.301 1.367
H 0.034 7.482 1.137
H 0.191 8.711 2.004
O -2.852 3.158 4.543
H -3.754 3.546 4.323
H -3.247 2.414 5.074
O -4.107 3.782 1.193
H -4.063 3.220 0.481
H -4.594 3.381 1.899
O -3.311 0.253 6.219
H -3.380 -0.759 6.082
H -4.114 0.310 6.843
O -5.729 2.901 3.048
H -6.414 3.066 2.358
H -5.975 3.619 3.674
O 1.215 6.280 1.082
H 1.164 6.094 2.037
H 1.509 5.408 0.785
O -0.979 4.548 3.115
H -1.684 3.937 3.385
H -1.312 5.386 3.599
O 1.031 0.647 5.237
H 1.660 0.472 4.556
H 0.898 1.650 5.209
O 2.701 3.387 4.958
H 2.056 3.281 5.634
H 2.730 4.387 4.823
O 2.976 4.171 0.497
H 3.447 3.512 -0.055
H 3.682 4.626 0.950
O -1.398 2.697 -3.052
H -1.800 3.402 -2.568
H -1.153 2.111 -2.312
O 3.695 0.912 4.136
H 3.680 1.867 4.142
H 4.241 0.731 3.368
O -1.293 2.103 7.046
H -1.016 1.172 7.070
H -2.069 2.119 6.499
O -5.933 0.165 4.105
H -6.561 0.269 4.879
H -5.747 1.141 3.953
O -6.366 -0.225 1.099
H -6.381 0.167 1.989
H -6.385 -1.181 1.276
O -1.812 5.362 0.269
H -1.275 5.420 1.111
H -2.343 4.555 0.452
O -0.301 -1.661 6.081
H 0.413 -0.963 5.853
H -0.547 -1.923 5.169
O -6.043 5.333 0.385
H -5.189 4.864 0.737
H -6.299 4.637 -0.322
O -5.491 4.689 5.422
H -6.383 4.437 5.761
H -4.953 4.507 6.175
O -4.839 -0.174 -1.198
H -4.449 -1.077 -1.066
H -5.421 -0.134 -0.426
O -0.663 -2.523 3.305
H -1.457 -2.349 2.778
H -0.113 -3.029 2.697
