27

O 2.462  -1.585   1.142
O 1.771  -2.175  -0.890
N -0.931   1.931   1.754
N 3.469  -0.056  -1.728
C 0.347   1.133   0.138
C 1.357   0.891  -0.921
C -0.705   0.190   0.462
C 2.642   0.079  -0.551
C -1.474   0.733   1.508
C 0.137   2.223   0.928
C -1.122  -0.946  -0.269
C -2.613   0.064   1.839
C 2.211  -1.352  -0.119
C -2.146  -1.725   0.284
C -2.904  -1.228   1.349
H 0.850   0.426  -1.871
H 1.815   1.826  -1.281
H 3.185   0.532   0.320
H 0.801   3.033   1.072
H -1.234   2.467   2.515
H -0.554  -1.086  -1.196
H -3.442   0.417   2.470
H -2.468  -2.591  -0.251
H 2.986  -0.341  -2.572
H 4.253  -0.667  -1.606
H -3.743  -1.743   1.790
H 2.006  -2.462   1.434
